p cnf 192 2040
-1 -81 0
-2 -82 0
-3 -83 0
-4 -84 0
-5 -85 0
-6 -86 0
-7 -87 0
-8 -88 0
-1 -161 0
-2 -162 0
-3 -163 0
-4 -164 0
-5 -165 0
-6 -166 0
-7 -167 0
-8 -168 0
-1 -89 0
-2 -90 0
-3 -91 0
-4 -92 0
-5 -93 0
-6 -94 0
-7 -95 0
-8 -96 0
-1 -73 0
-2 -74 0
-3 -75 0
-4 -76 0
-5 -77 0
-6 -78 0
-7 -79 0
-8 -80 0
-1 -105 0
-2 -106 0
-3 -107 0
-4 -108 0
-5 -109 0
-6 -110 0
-7 -111 0
-8 -112 0
-1 -57 0
-2 -58 0
-3 -59 0
-4 -60 0
-5 -61 0
-6 -62 0
-7 -63 0
-8 -64 0
-1 -9 0
-2 -10 0
-3 -11 0
-4 -12 0
-5 -13 0
-6 -14 0
-7 -15 0
-8 -16 0
-1 -41 0
-2 -42 0
-3 -43 0
-4 -44 0
-5 -45 0
-6 -46 0
-7 -47 0
-8 -48 0
-1 -49 0
-2 -50 0
-3 -51 0
-4 -52 0
-5 -53 0
-6 -54 0
-7 -55 0
-8 -56 0
-1 -153 0
-2 -154 0
-3 -155 0
-4 -156 0
-5 -157 0
-6 -158 0
-7 -159 0
-8 -160 0
-1 -65 0
-2 -66 0
-3 -67 0
-4 -68 0
-5 -69 0
-6 -70 0
-7 -71 0
-8 -72 0
-1 -25 0
-2 -26 0
-3 -27 0
-4 -28 0
-5 -29 0
-6 -30 0
-7 -31 0
-8 -32 0
-1 -169 0
-2 -170 0
-3 -171 0
-4 -172 0
-5 -173 0
-6 -174 0
-7 -175 0
-8 -176 0
-1 -33 0
-2 -34 0
-3 -35 0
-4 -36 0
-5 -37 0
-6 -38 0
-7 -39 0
-8 -40 0
-9 -81 0
-10 -82 0
-11 -83 0
-12 -84 0
-13 -85 0
-14 -86 0
-15 -87 0
-16 -88 0
-9 -161 0
-10 -162 0
-11 -163 0
-12 -164 0
-13 -165 0
-14 -166 0
-15 -167 0
-16 -168 0
-9 -73 0
-10 -74 0
-11 -75 0
-12 -76 0
-13 -77 0
-14 -78 0
-15 -79 0
-16 -80 0
-9 -105 0
-10 -106 0
-11 -107 0
-12 -108 0
-13 -109 0
-14 -110 0
-15 -111 0
-16 -112 0
-9 -49 0
-10 -50 0
-11 -51 0
-12 -52 0
-13 -53 0
-14 -54 0
-15 -55 0
-16 -56 0
-9 -177 0
-10 -178 0
-11 -179 0
-12 -180 0
-13 -181 0
-14 -182 0
-15 -183 0
-16 -184 0
-9 -17 0
-10 -18 0
-11 -19 0
-12 -20 0
-13 -21 0
-14 -22 0
-15 -23 0
-16 -24 0
-9 -137 0
-10 -138 0
-11 -139 0
-12 -140 0
-13 -141 0
-14 -142 0
-15 -143 0
-16 -144 0
-9 -65 0
-10 -66 0
-11 -67 0
-12 -68 0
-13 -69 0
-14 -70 0
-15 -71 0
-16 -72 0
-9 -57 0
-10 -58 0
-11 -59 0
-12 -60 0
-13 -61 0
-14 -62 0
-15 -63 0
-16 -64 0
-9 -41 0
-10 -42 0
-11 -43 0
-12 -44 0
-13 -45 0
-14 -46 0
-15 -47 0
-16 -48 0
-9 -25 0
-10 -26 0
-11 -27 0
-12 -28 0
-13 -29 0
-14 -30 0
-15 -31 0
-16 -32 0
-9 -33 0
-10 -34 0
-11 -35 0
-12 -36 0
-13 -37 0
-14 -38 0
-15 -39 0
-16 -40 0
-17 -81 0
-18 -82 0
-19 -83 0
-20 -84 0
-21 -85 0
-22 -86 0
-23 -87 0
-24 -88 0
-17 -161 0
-18 -162 0
-19 -163 0
-20 -164 0
-21 -165 0
-22 -166 0
-23 -167 0
-24 -168 0
-17 -89 0
-18 -90 0
-19 -91 0
-20 -92 0
-21 -93 0
-22 -94 0
-23 -95 0
-24 -96 0
-17 -177 0
-18 -178 0
-19 -179 0
-20 -180 0
-21 -181 0
-22 -182 0
-23 -183 0
-24 -184 0
-17 -113 0
-18 -114 0
-19 -115 0
-20 -116 0
-21 -117 0
-22 -118 0
-23 -119 0
-24 -120 0
-17 -121 0
-18 -122 0
-19 -123 0
-20 -124 0
-21 -125 0
-22 -126 0
-23 -127 0
-24 -128 0
-17 -65 0
-18 -66 0
-19 -67 0
-20 -68 0
-21 -69 0
-22 -70 0
-23 -71 0
-24 -72 0
-17 -33 0
-18 -34 0
-19 -35 0
-20 -36 0
-21 -37 0
-22 -38 0
-23 -39 0
-24 -40 0
-17 -185 0
-18 -186 0
-19 -187 0
-20 -188 0
-21 -189 0
-22 -190 0
-23 -191 0
-24 -192 0
-17 -137 0
-18 -138 0
-19 -139 0
-20 -140 0
-21 -141 0
-22 -142 0
-23 -143 0
-24 -144 0
-17 -97 0
-18 -98 0
-19 -99 0
-20 -100 0
-21 -101 0
-22 -102 0
-23 -103 0
-24 -104 0
-17 -57 0
-18 -58 0
-19 -59 0
-20 -60 0
-21 -61 0
-22 -62 0
-23 -63 0
-24 -64 0
-17 -25 0
-18 -26 0
-19 -27 0
-20 -28 0
-21 -29 0
-22 -30 0
-23 -31 0
-24 -32 0
-17 -129 0
-18 -130 0
-19 -131 0
-20 -132 0
-21 -133 0
-22 -134 0
-23 -135 0
-24 -136 0
-25 -105 0
-26 -106 0
-27 -107 0
-28 -108 0
-29 -109 0
-30 -110 0
-31 -111 0
-32 -112 0
-25 -49 0
-26 -50 0
-27 -51 0
-28 -52 0
-29 -53 0
-30 -54 0
-31 -55 0
-32 -56 0
-25 -153 0
-26 -154 0
-27 -155 0
-28 -156 0
-29 -157 0
-30 -158 0
-31 -159 0
-32 -160 0
-25 -177 0
-26 -178 0
-27 -179 0
-28 -180 0
-29 -181 0
-30 -182 0
-31 -183 0
-32 -184 0
-25 -185 0
-26 -186 0
-27 -187 0
-28 -188 0
-29 -189 0
-30 -190 0
-31 -191 0
-32 -192 0
-25 -137 0
-26 -138 0
-27 -139 0
-28 -140 0
-29 -141 0
-30 -142 0
-31 -143 0
-32 -144 0
-25 -65 0
-26 -66 0
-27 -67 0
-28 -68 0
-29 -69 0
-30 -70 0
-31 -71 0
-32 -72 0
-25 -57 0
-26 -58 0
-27 -59 0
-28 -60 0
-29 -61 0
-30 -62 0
-31 -63 0
-32 -64 0
-25 -41 0
-26 -42 0
-27 -43 0
-28 -44 0
-29 -45 0
-30 -46 0
-31 -47 0
-32 -48 0
-25 -33 0
-26 -34 0
-27 -35 0
-28 -36 0
-29 -37 0
-30 -38 0
-31 -39 0
-32 -40 0
-25 -145 0
-26 -146 0
-27 -147 0
-28 -148 0
-29 -149 0
-30 -150 0
-31 -151 0
-32 -152 0
-33 -161 0
-34 -162 0
-35 -163 0
-36 -164 0
-37 -165 0
-38 -166 0
-39 -167 0
-40 -168 0
-33 -49 0
-34 -50 0
-35 -51 0
-36 -52 0
-37 -53 0
-38 -54 0
-39 -55 0
-40 -56 0
-33 -177 0
-34 -178 0
-35 -179 0
-36 -180 0
-37 -181 0
-38 -182 0
-39 -183 0
-40 -184 0
-33 -113 0
-34 -114 0
-35 -115 0
-36 -116 0
-37 -117 0
-38 -118 0
-39 -119 0
-40 -120 0
-33 -185 0
-34 -186 0
-35 -187 0
-36 -188 0
-37 -189 0
-38 -190 0
-39 -191 0
-40 -192 0
-33 -137 0
-34 -138 0
-35 -139 0
-36 -140 0
-37 -141 0
-38 -142 0
-39 -143 0
-40 -144 0
-33 -121 0
-34 -122 0
-35 -123 0
-36 -124 0
-37 -125 0
-38 -126 0
-39 -127 0
-40 -128 0
-33 -65 0
-34 -66 0
-35 -67 0
-36 -68 0
-37 -69 0
-38 -70 0
-39 -71 0
-40 -72 0
-33 -57 0
-34 -58 0
-35 -59 0
-36 -60 0
-37 -61 0
-38 -62 0
-39 -63 0
-40 -64 0
-33 -41 0
-34 -42 0
-35 -43 0
-36 -44 0
-37 -45 0
-38 -46 0
-39 -47 0
-40 -48 0
-33 -145 0
-34 -146 0
-35 -147 0
-36 -148 0
-37 -149 0
-38 -150 0
-39 -151 0
-40 -152 0
-41 -81 0
-42 -82 0
-43 -83 0
-44 -84 0
-45 -85 0
-46 -86 0
-47 -87 0
-48 -88 0
-41 -73 0
-42 -74 0
-43 -75 0
-44 -76 0
-45 -77 0
-46 -78 0
-47 -79 0
-48 -80 0
-41 -105 0
-42 -106 0
-43 -107 0
-44 -108 0
-45 -109 0
-46 -110 0
-47 -111 0
-48 -112 0
-41 -49 0
-42 -50 0
-43 -51 0
-44 -52 0
-45 -53 0
-46 -54 0
-47 -55 0
-48 -56 0
-41 -153 0
-42 -154 0
-43 -155 0
-44 -156 0
-45 -157 0
-46 -158 0
-47 -159 0
-48 -160 0
-41 -137 0
-42 -138 0
-43 -139 0
-44 -140 0
-45 -141 0
-46 -142 0
-47 -143 0
-48 -144 0
-41 -65 0
-42 -66 0
-43 -67 0
-44 -68 0
-45 -69 0
-46 -70 0
-47 -71 0
-48 -72 0
-41 -57 0
-42 -58 0
-43 -59 0
-44 -60 0
-45 -61 0
-46 -62 0
-47 -63 0
-48 -64 0
-41 -145 0
-42 -146 0
-43 -147 0
-44 -148 0
-45 -149 0
-46 -150 0
-47 -151 0
-48 -152 0
-41 -169 0
-42 -170 0
-43 -171 0
-44 -172 0
-45 -173 0
-46 -174 0
-47 -175 0
-48 -176 0
-49 -73 0
-50 -74 0
-51 -75 0
-52 -76 0
-53 -77 0
-54 -78 0
-55 -79 0
-56 -80 0
-49 -105 0
-50 -106 0
-51 -107 0
-52 -108 0
-53 -109 0
-54 -110 0
-55 -111 0
-56 -112 0
-49 -153 0
-50 -154 0
-51 -155 0
-52 -156 0
-53 -157 0
-54 -158 0
-55 -159 0
-56 -160 0
-49 -137 0
-50 -138 0
-51 -139 0
-52 -140 0
-53 -141 0
-54 -142 0
-55 -143 0
-56 -144 0
-49 -145 0
-50 -146 0
-51 -147 0
-52 -148 0
-53 -149 0
-54 -150 0
-55 -151 0
-56 -152 0
-49 -177 0
-50 -178 0
-51 -179 0
-52 -180 0
-53 -181 0
-54 -182 0
-55 -183 0
-56 -184 0
-49 -185 0
-50 -186 0
-51 -187 0
-52 -188 0
-53 -189 0
-54 -190 0
-55 -191 0
-56 -192 0
-49 -169 0
-50 -170 0
-51 -171 0
-52 -172 0
-53 -173 0
-54 -174 0
-55 -175 0
-56 -176 0
-49 -129 0
-50 -130 0
-51 -131 0
-52 -132 0
-53 -133 0
-54 -134 0
-55 -135 0
-56 -136 0
-57 -81 0
-58 -82 0
-59 -83 0
-60 -84 0
-61 -85 0
-62 -86 0
-63 -87 0
-64 -88 0
-57 -161 0
-58 -162 0
-59 -163 0
-60 -164 0
-61 -165 0
-62 -166 0
-63 -167 0
-64 -168 0
-57 -89 0
-58 -90 0
-59 -91 0
-60 -92 0
-61 -93 0
-62 -94 0
-63 -95 0
-64 -96 0
-57 -73 0
-58 -74 0
-59 -75 0
-60 -76 0
-61 -77 0
-62 -78 0
-63 -79 0
-64 -80 0
-57 -105 0
-58 -106 0
-59 -107 0
-60 -108 0
-61 -109 0
-62 -110 0
-63 -111 0
-64 -112 0
-57 -121 0
-58 -122 0
-59 -123 0
-60 -124 0
-61 -125 0
-62 -126 0
-63 -127 0
-64 -128 0
-57 -65 0
-58 -66 0
-59 -67 0
-60 -68 0
-61 -69 0
-62 -70 0
-63 -71 0
-64 -72 0
-65 -81 0
-66 -82 0
-67 -83 0
-68 -84 0
-69 -85 0
-70 -86 0
-71 -87 0
-72 -88 0
-65 -161 0
-66 -162 0
-67 -163 0
-68 -164 0
-69 -165 0
-70 -166 0
-71 -167 0
-72 -168 0
-65 -89 0
-66 -90 0
-67 -91 0
-68 -92 0
-69 -93 0
-70 -94 0
-71 -95 0
-72 -96 0
-65 -177 0
-66 -178 0
-67 -179 0
-68 -180 0
-69 -181 0
-70 -182 0
-71 -183 0
-72 -184 0
-65 -113 0
-66 -114 0
-67 -115 0
-68 -116 0
-69 -117 0
-70 -118 0
-71 -119 0
-72 -120 0
-65 -137 0
-66 -138 0
-67 -139 0
-68 -140 0
-69 -141 0
-70 -142 0
-71 -143 0
-72 -144 0
-65 -121 0
-66 -122 0
-67 -123 0
-68 -124 0
-69 -125 0
-70 -126 0
-71 -127 0
-72 -128 0
-73 -81 0
-74 -82 0
-75 -83 0
-76 -84 0
-77 -85 0
-78 -86 0
-79 -87 0
-80 -88 0
-73 -161 0
-74 -162 0
-75 -163 0
-76 -164 0
-77 -165 0
-78 -166 0
-79 -167 0
-80 -168 0
-73 -89 0
-74 -90 0
-75 -91 0
-76 -92 0
-77 -93 0
-78 -94 0
-79 -95 0
-80 -96 0
-73 -105 0
-74 -106 0
-75 -107 0
-76 -108 0
-77 -109 0
-78 -110 0
-79 -111 0
-80 -112 0
-73 -169 0
-74 -170 0
-75 -171 0
-76 -172 0
-77 -173 0
-78 -174 0
-79 -175 0
-80 -176 0
-73 -153 0
-74 -154 0
-75 -155 0
-76 -156 0
-77 -157 0
-78 -158 0
-79 -159 0
-80 -160 0
-73 -121 0
-74 -122 0
-75 -123 0
-76 -124 0
-77 -125 0
-78 -126 0
-79 -127 0
-80 -128 0
-73 -97 0
-74 -98 0
-75 -99 0
-76 -100 0
-77 -101 0
-78 -102 0
-79 -103 0
-80 -104 0
-73 -129 0
-74 -130 0
-75 -131 0
-76 -132 0
-77 -133 0
-78 -134 0
-79 -135 0
-80 -136 0
-81 -161 0
-82 -162 0
-83 -163 0
-84 -164 0
-85 -165 0
-86 -166 0
-87 -167 0
-88 -168 0
-81 -89 0
-82 -90 0
-83 -91 0
-84 -92 0
-85 -93 0
-86 -94 0
-87 -95 0
-88 -96 0
-81 -105 0
-82 -106 0
-83 -107 0
-84 -108 0
-85 -109 0
-86 -110 0
-87 -111 0
-88 -112 0
-81 -121 0
-82 -122 0
-83 -123 0
-84 -124 0
-85 -125 0
-86 -126 0
-87 -127 0
-88 -128 0
-81 -97 0
-82 -98 0
-83 -99 0
-84 -100 0
-85 -101 0
-86 -102 0
-87 -103 0
-88 -104 0
-81 -169 0
-82 -170 0
-83 -171 0
-84 -172 0
-85 -173 0
-86 -174 0
-87 -175 0
-88 -176 0
-89 -161 0
-90 -162 0
-91 -163 0
-92 -164 0
-93 -165 0
-94 -166 0
-95 -167 0
-96 -168 0
-89 -121 0
-90 -122 0
-91 -123 0
-92 -124 0
-93 -125 0
-94 -126 0
-95 -127 0
-96 -128 0
-89 -97 0
-90 -98 0
-91 -99 0
-92 -100 0
-93 -101 0
-94 -102 0
-95 -103 0
-96 -104 0
-89 -169 0
-90 -170 0
-91 -171 0
-92 -172 0
-93 -173 0
-94 -174 0
-95 -175 0
-96 -176 0
-89 -105 0
-90 -106 0
-91 -107 0
-92 -108 0
-93 -109 0
-94 -110 0
-95 -111 0
-96 -112 0
-89 -153 0
-90 -154 0
-91 -155 0
-92 -156 0
-93 -157 0
-94 -158 0
-95 -159 0
-96 -160 0
-89 -113 0
-90 -114 0
-91 -115 0
-92 -116 0
-93 -117 0
-94 -118 0
-95 -119 0
-96 -120 0
-89 -129 0
-90 -130 0
-91 -131 0
-92 -132 0
-93 -133 0
-94 -134 0
-95 -135 0
-96 -136 0
-97 -161 0
-98 -162 0
-99 -163 0
-100 -164 0
-101 -165 0
-102 -166 0
-103 -167 0
-104 -168 0
-97 -105 0
-98 -106 0
-99 -107 0
-100 -108 0
-101 -109 0
-102 -110 0
-103 -111 0
-104 -112 0
-97 -153 0
-98 -154 0
-99 -155 0
-100 -156 0
-101 -157 0
-102 -158 0
-103 -159 0
-104 -160 0
-97 -177 0
-98 -178 0
-99 -179 0
-100 -180 0
-101 -181 0
-102 -182 0
-103 -183 0
-104 -184 0
-97 -113 0
-98 -114 0
-99 -115 0
-100 -116 0
-101 -117 0
-102 -118 0
-103 -119 0
-104 -120 0
-97 -185 0
-98 -186 0
-99 -187 0
-100 -188 0
-101 -189 0
-102 -190 0
-103 -191 0
-104 -192 0
-97 -121 0
-98 -122 0
-99 -123 0
-100 -124 0
-101 -125 0
-102 -126 0
-103 -127 0
-104 -128 0
-97 -169 0
-98 -170 0
-99 -171 0
-100 -172 0
-101 -173 0
-102 -174 0
-103 -175 0
-104 -176 0
-97 -129 0
-98 -130 0
-99 -131 0
-100 -132 0
-101 -133 0
-102 -134 0
-103 -135 0
-104 -136 0
-97 -145 0
-98 -146 0
-99 -147 0
-100 -148 0
-101 -149 0
-102 -150 0
-103 -151 0
-104 -152 0
-105 -153 0
-106 -154 0
-107 -155 0
-108 -156 0
-109 -157 0
-110 -158 0
-111 -159 0
-112 -160 0
-105 -169 0
-106 -170 0
-107 -171 0
-108 -172 0
-109 -173 0
-110 -174 0
-111 -175 0
-112 -176 0
-105 -137 0
-106 -138 0
-107 -139 0
-108 -140 0
-109 -141 0
-110 -142 0
-111 -143 0
-112 -144 0
-105 -145 0
-106 -146 0
-107 -147 0
-108 -148 0
-109 -149 0
-110 -150 0
-111 -151 0
-112 -152 0
-105 -129 0
-106 -130 0
-107 -131 0
-108 -132 0
-109 -133 0
-110 -134 0
-111 -135 0
-112 -136 0
-113 -161 0
-114 -162 0
-115 -163 0
-116 -164 0
-117 -165 0
-118 -166 0
-119 -167 0
-120 -168 0
-113 -153 0
-114 -154 0
-115 -155 0
-116 -156 0
-117 -157 0
-118 -158 0
-119 -159 0
-120 -160 0
-113 -177 0
-114 -178 0
-115 -179 0
-116 -180 0
-117 -181 0
-118 -182 0
-119 -183 0
-120 -184 0
-113 -185 0
-114 -186 0
-115 -187 0
-116 -188 0
-117 -189 0
-118 -190 0
-119 -191 0
-120 -192 0
-113 -121 0
-114 -122 0
-115 -123 0
-116 -124 0
-117 -125 0
-118 -126 0
-119 -127 0
-120 -128 0
-113 -129 0
-114 -130 0
-115 -131 0
-116 -132 0
-117 -133 0
-118 -134 0
-119 -135 0
-120 -136 0
-113 -137 0
-114 -138 0
-115 -139 0
-116 -140 0
-117 -141 0
-118 -142 0
-119 -143 0
-120 -144 0
-113 -145 0
-114 -146 0
-115 -147 0
-116 -148 0
-117 -149 0
-118 -150 0
-119 -151 0
-120 -152 0
-113 -169 0
-114 -170 0
-115 -171 0
-116 -172 0
-117 -173 0
-118 -174 0
-119 -175 0
-120 -176 0
-121 -161 0
-122 -162 0
-123 -163 0
-124 -164 0
-125 -165 0
-126 -166 0
-127 -167 0
-128 -168 0
-121 -177 0
-122 -178 0
-123 -179 0
-124 -180 0
-125 -181 0
-126 -182 0
-127 -183 0
-128 -184 0
-121 -185 0
-122 -186 0
-123 -187 0
-124 -188 0
-125 -189 0
-126 -190 0
-127 -191 0
-128 -192 0
-121 -169 0
-122 -170 0
-123 -171 0
-124 -172 0
-125 -173 0
-126 -174 0
-127 -175 0
-128 -176 0
-121 -129 0
-122 -130 0
-123 -131 0
-124 -132 0
-125 -133 0
-126 -134 0
-127 -135 0
-128 -136 0
-129 -153 0
-130 -154 0
-131 -155 0
-132 -156 0
-133 -157 0
-134 -158 0
-135 -159 0
-136 -160 0
-129 -177 0
-130 -178 0
-131 -179 0
-132 -180 0
-133 -181 0
-134 -182 0
-135 -183 0
-136 -184 0
-129 -185 0
-130 -186 0
-131 -187 0
-132 -188 0
-133 -189 0
-134 -190 0
-135 -191 0
-136 -192 0
-129 -137 0
-130 -138 0
-131 -139 0
-132 -140 0
-133 -141 0
-134 -142 0
-135 -143 0
-136 -144 0
-129 -145 0
-130 -146 0
-131 -147 0
-132 -148 0
-133 -149 0
-134 -150 0
-135 -151 0
-136 -152 0
-129 -169 0
-130 -170 0
-131 -171 0
-132 -172 0
-133 -173 0
-134 -174 0
-135 -175 0
-136 -176 0
-137 -153 0
-138 -154 0
-139 -155 0
-140 -156 0
-141 -157 0
-142 -158 0
-143 -159 0
-144 -160 0
-137 -177 0
-138 -178 0
-139 -179 0
-140 -180 0
-141 -181 0
-142 -182 0
-143 -183 0
-144 -184 0
-137 -185 0
-138 -186 0
-139 -187 0
-140 -188 0
-141 -189 0
-142 -190 0
-143 -191 0
-144 -192 0
-137 -145 0
-138 -146 0
-139 -147 0
-140 -148 0
-141 -149 0
-142 -150 0
-143 -151 0
-144 -152 0
-145 -153 0
-146 -154 0
-147 -155 0
-148 -156 0
-149 -157 0
-150 -158 0
-151 -159 0
-152 -160 0
-145 -177 0
-146 -178 0
-147 -179 0
-148 -180 0
-149 -181 0
-150 -182 0
-151 -183 0
-152 -184 0
-145 -185 0
-146 -186 0
-147 -187 0
-148 -188 0
-149 -189 0
-150 -190 0
-151 -191 0
-152 -192 0
-145 -169 0
-146 -170 0
-147 -171 0
-148 -172 0
-149 -173 0
-150 -174 0
-151 -175 0
-152 -176 0
-153 -169 0
-154 -170 0
-155 -171 0
-156 -172 0
-157 -173 0
-158 -174 0
-159 -175 0
-160 -176 0
-153 -185 0
-154 -186 0
-155 -187 0
-156 -188 0
-157 -189 0
-158 -190 0
-159 -191 0
-160 -192 0
-161 -177 0
-162 -178 0
-163 -179 0
-164 -180 0
-165 -181 0
-166 -182 0
-167 -183 0
-168 -184 0
-161 -169 0
-162 -170 0
-163 -171 0
-164 -172 0
-165 -173 0
-166 -174 0
-167 -175 0
-168 -176 0
-169 -185 0
-170 -186 0
-171 -187 0
-172 -188 0
-173 -189 0
-174 -190 0
-175 -191 0
-176 -192 0
-177 -185 0
-178 -186 0
-179 -187 0
-180 -188 0
-181 -189 0
-182 -190 0
-183 -191 0
-184 -192 0
1 2 3 4 5 6 7 8 0
-1 -2 0
-1 -3 0
-1 -4 0
-1 -5 0
-1 -6 0
-1 -7 0
-1 -8 0
-2 -3 0
-2 -4 0
-2 -5 0
-2 -6 0
-2 -7 0
-2 -8 0
-3 -4 0
-3 -5 0
-3 -6 0
-3 -7 0
-3 -8 0
-4 -5 0
-4 -6 0
-4 -7 0
-4 -8 0
-5 -6 0
-5 -7 0
-5 -8 0
-6 -7 0
-6 -8 0
-7 -8 0
9 10 11 12 13 14 15 16 0
-9 -10 0
-9 -11 0
-9 -12 0
-9 -13 0
-9 -14 0
-9 -15 0
-9 -16 0
-10 -11 0
-10 -12 0
-10 -13 0
-10 -14 0
-10 -15 0
-10 -16 0
-11 -12 0
-11 -13 0
-11 -14 0
-11 -15 0
-11 -16 0
-12 -13 0
-12 -14 0
-12 -15 0
-12 -16 0
-13 -14 0
-13 -15 0
-13 -16 0
-14 -15 0
-14 -16 0
-15 -16 0
17 18 19 20 21 22 23 24 0
-17 -18 0
-17 -19 0
-17 -20 0
-17 -21 0
-17 -22 0
-17 -23 0
-17 -24 0
-18 -19 0
-18 -20 0
-18 -21 0
-18 -22 0
-18 -23 0
-18 -24 0
-19 -20 0
-19 -21 0
-19 -22 0
-19 -23 0
-19 -24 0
-20 -21 0
-20 -22 0
-20 -23 0
-20 -24 0
-21 -22 0
-21 -23 0
-21 -24 0
-22 -23 0
-22 -24 0
-23 -24 0
25 26 27 28 29 30 31 32 0
-25 -26 0
-25 -27 0
-25 -28 0
-25 -29 0
-25 -30 0
-25 -31 0
-25 -32 0
-26 -27 0
-26 -28 0
-26 -29 0
-26 -30 0
-26 -31 0
-26 -32 0
-27 -28 0
-27 -29 0
-27 -30 0
-27 -31 0
-27 -32 0
-28 -29 0
-28 -30 0
-28 -31 0
-28 -32 0
-29 -30 0
-29 -31 0
-29 -32 0
-30 -31 0
-30 -32 0
-31 -32 0
33 34 35 36 37 38 39 40 0
-33 -34 0
-33 -35 0
-33 -36 0
-33 -37 0
-33 -38 0
-33 -39 0
-33 -40 0
-34 -35 0
-34 -36 0
-34 -37 0
-34 -38 0
-34 -39 0
-34 -40 0
-35 -36 0
-35 -37 0
-35 -38 0
-35 -39 0
-35 -40 0
-36 -37 0
-36 -38 0
-36 -39 0
-36 -40 0
-37 -38 0
-37 -39 0
-37 -40 0
-38 -39 0
-38 -40 0
-39 -40 0
41 42 43 44 45 46 47 48 0
-41 -42 0
-41 -43 0
-41 -44 0
-41 -45 0
-41 -46 0
-41 -47 0
-41 -48 0
-42 -43 0
-42 -44 0
-42 -45 0
-42 -46 0
-42 -47 0
-42 -48 0
-43 -44 0
-43 -45 0
-43 -46 0
-43 -47 0
-43 -48 0
-44 -45 0
-44 -46 0
-44 -47 0
-44 -48 0
-45 -46 0
-45 -47 0
-45 -48 0
-46 -47 0
-46 -48 0
-47 -48 0
49 50 51 52 53 54 55 56 0
-49 -50 0
-49 -51 0
-49 -52 0
-49 -53 0
-49 -54 0
-49 -55 0
-49 -56 0
-50 -51 0
-50 -52 0
-50 -53 0
-50 -54 0
-50 -55 0
-50 -56 0
-51 -52 0
-51 -53 0
-51 -54 0
-51 -55 0
-51 -56 0
-52 -53 0
-52 -54 0
-52 -55 0
-52 -56 0
-53 -54 0
-53 -55 0
-53 -56 0
-54 -55 0
-54 -56 0
-55 -56 0
57 58 59 60 61 62 63 64 0
-57 -58 0
-57 -59 0
-57 -60 0
-57 -61 0
-57 -62 0
-57 -63 0
-57 -64 0
-58 -59 0
-58 -60 0
-58 -61 0
-58 -62 0
-58 -63 0
-58 -64 0
-59 -60 0
-59 -61 0
-59 -62 0
-59 -63 0
-59 -64 0
-60 -61 0
-60 -62 0
-60 -63 0
-60 -64 0
-61 -62 0
-61 -63 0
-61 -64 0
-62 -63 0
-62 -64 0
-63 -64 0
65 66 67 68 69 70 71 72 0
-65 -66 0
-65 -67 0
-65 -68 0
-65 -69 0
-65 -70 0
-65 -71 0
-65 -72 0
-66 -67 0
-66 -68 0
-66 -69 0
-66 -70 0
-66 -71 0
-66 -72 0
-67 -68 0
-67 -69 0
-67 -70 0
-67 -71 0
-67 -72 0
-68 -69 0
-68 -70 0
-68 -71 0
-68 -72 0
-69 -70 0
-69 -71 0
-69 -72 0
-70 -71 0
-70 -72 0
-71 -72 0
73 74 75 76 77 78 79 80 0
-73 -74 0
-73 -75 0
-73 -76 0
-73 -77 0
-73 -78 0
-73 -79 0
-73 -80 0
-74 -75 0
-74 -76 0
-74 -77 0
-74 -78 0
-74 -79 0
-74 -80 0
-75 -76 0
-75 -77 0
-75 -78 0
-75 -79 0
-75 -80 0
-76 -77 0
-76 -78 0
-76 -79 0
-76 -80 0
-77 -78 0
-77 -79 0
-77 -80 0
-78 -79 0
-78 -80 0
-79 -80 0
81 82 83 84 85 86 87 88 0
-81 -82 0
-81 -83 0
-81 -84 0
-81 -85 0
-81 -86 0
-81 -87 0
-81 -88 0
-82 -83 0
-82 -84 0
-82 -85 0
-82 -86 0
-82 -87 0
-82 -88 0
-83 -84 0
-83 -85 0
-83 -86 0
-83 -87 0
-83 -88 0
-84 -85 0
-84 -86 0
-84 -87 0
-84 -88 0
-85 -86 0
-85 -87 0
-85 -88 0
-86 -87 0
-86 -88 0
-87 -88 0
89 90 91 92 93 94 95 96 0
-89 -90 0
-89 -91 0
-89 -92 0
-89 -93 0
-89 -94 0
-89 -95 0
-89 -96 0
-90 -91 0
-90 -92 0
-90 -93 0
-90 -94 0
-90 -95 0
-90 -96 0
-91 -92 0
-91 -93 0
-91 -94 0
-91 -95 0
-91 -96 0
-92 -93 0
-92 -94 0
-92 -95 0
-92 -96 0
-93 -94 0
-93 -95 0
-93 -96 0
-94 -95 0
-94 -96 0
-95 -96 0
97 98 99 100 101 102 103 104 0
-97 -98 0
-97 -99 0
-97 -100 0
-97 -101 0
-97 -102 0
-97 -103 0
-97 -104 0
-98 -99 0
-98 -100 0
-98 -101 0
-98 -102 0
-98 -103 0
-98 -104 0
-99 -100 0
-99 -101 0
-99 -102 0
-99 -103 0
-99 -104 0
-100 -101 0
-100 -102 0
-100 -103 0
-100 -104 0
-101 -102 0
-101 -103 0
-101 -104 0
-102 -103 0
-102 -104 0
-103 -104 0
105 106 107 108 109 110 111 112 0
-105 -106 0
-105 -107 0
-105 -108 0
-105 -109 0
-105 -110 0
-105 -111 0
-105 -112 0
-106 -107 0
-106 -108 0
-106 -109 0
-106 -110 0
-106 -111 0
-106 -112 0
-107 -108 0
-107 -109 0
-107 -110 0
-107 -111 0
-107 -112 0
-108 -109 0
-108 -110 0
-108 -111 0
-108 -112 0
-109 -110 0
-109 -111 0
-109 -112 0
-110 -111 0
-110 -112 0
-111 -112 0
113 114 115 116 117 118 119 120 0
-113 -114 0
-113 -115 0
-113 -116 0
-113 -117 0
-113 -118 0
-113 -119 0
-113 -120 0
-114 -115 0
-114 -116 0
-114 -117 0
-114 -118 0
-114 -119 0
-114 -120 0
-115 -116 0
-115 -117 0
-115 -118 0
-115 -119 0
-115 -120 0
-116 -117 0
-116 -118 0
-116 -119 0
-116 -120 0
-117 -118 0
-117 -119 0
-117 -120 0
-118 -119 0
-118 -120 0
-119 -120 0
121 122 123 124 125 126 127 128 0
-121 -122 0
-121 -123 0
-121 -124 0
-121 -125 0
-121 -126 0
-121 -127 0
-121 -128 0
-122 -123 0
-122 -124 0
-122 -125 0
-122 -126 0
-122 -127 0
-122 -128 0
-123 -124 0
-123 -125 0
-123 -126 0
-123 -127 0
-123 -128 0
-124 -125 0
-124 -126 0
-124 -127 0
-124 -128 0
-125 -126 0
-125 -127 0
-125 -128 0
-126 -127 0
-126 -128 0
-127 -128 0
129 130 131 132 133 134 135 136 0
-129 -130 0
-129 -131 0
-129 -132 0
-129 -133 0
-129 -134 0
-129 -135 0
-129 -136 0
-130 -131 0
-130 -132 0
-130 -133 0
-130 -134 0
-130 -135 0
-130 -136 0
-131 -132 0
-131 -133 0
-131 -134 0
-131 -135 0
-131 -136 0
-132 -133 0
-132 -134 0
-132 -135 0
-132 -136 0
-133 -134 0
-133 -135 0
-133 -136 0
-134 -135 0
-134 -136 0
-135 -136 0
137 138 139 140 141 142 143 144 0
-137 -138 0
-137 -139 0
-137 -140 0
-137 -141 0
-137 -142 0
-137 -143 0
-137 -144 0
-138 -139 0
-138 -140 0
-138 -141 0
-138 -142 0
-138 -143 0
-138 -144 0
-139 -140 0
-139 -141 0
-139 -142 0
-139 -143 0
-139 -144 0
-140 -141 0
-140 -142 0
-140 -143 0
-140 -144 0
-141 -142 0
-141 -143 0
-141 -144 0
-142 -143 0
-142 -144 0
-143 -144 0
145 146 147 148 149 150 151 152 0
-145 -146 0
-145 -147 0
-145 -148 0
-145 -149 0
-145 -150 0
-145 -151 0
-145 -152 0
-146 -147 0
-146 -148 0
-146 -149 0
-146 -150 0
-146 -151 0
-146 -152 0
-147 -148 0
-147 -149 0
-147 -150 0
-147 -151 0
-147 -152 0
-148 -149 0
-148 -150 0
-148 -151 0
-148 -152 0
-149 -150 0
-149 -151 0
-149 -152 0
-150 -151 0
-150 -152 0
-151 -152 0
153 154 155 156 157 158 159 160 0
-153 -154 0
-153 -155 0
-153 -156 0
-153 -157 0
-153 -158 0
-153 -159 0
-153 -160 0
-154 -155 0
-154 -156 0
-154 -157 0
-154 -158 0
-154 -159 0
-154 -160 0
-155 -156 0
-155 -157 0
-155 -158 0
-155 -159 0
-155 -160 0
-156 -157 0
-156 -158 0
-156 -159 0
-156 -160 0
-157 -158 0
-157 -159 0
-157 -160 0
-158 -159 0
-158 -160 0
-159 -160 0
161 162 163 164 165 166 167 168 0
-161 -162 0
-161 -163 0
-161 -164 0
-161 -165 0
-161 -166 0
-161 -167 0
-161 -168 0
-162 -163 0
-162 -164 0
-162 -165 0
-162 -166 0
-162 -167 0
-162 -168 0
-163 -164 0
-163 -165 0
-163 -166 0
-163 -167 0
-163 -168 0
-164 -165 0
-164 -166 0
-164 -167 0
-164 -168 0
-165 -166 0
-165 -167 0
-165 -168 0
-166 -167 0
-166 -168 0
-167 -168 0
169 170 171 172 173 174 175 176 0
-169 -170 0
-169 -171 0
-169 -172 0
-169 -173 0
-169 -174 0
-169 -175 0
-169 -176 0
-170 -171 0
-170 -172 0
-170 -173 0
-170 -174 0
-170 -175 0
-170 -176 0
-171 -172 0
-171 -173 0
-171 -174 0
-171 -175 0
-171 -176 0
-172 -173 0
-172 -174 0
-172 -175 0
-172 -176 0
-173 -174 0
-173 -175 0
-173 -176 0
-174 -175 0
-174 -176 0
-175 -176 0
177 178 179 180 181 182 183 184 0
-177 -178 0
-177 -179 0
-177 -180 0
-177 -181 0
-177 -182 0
-177 -183 0
-177 -184 0
-178 -179 0
-178 -180 0
-178 -181 0
-178 -182 0
-178 -183 0
-178 -184 0
-179 -180 0
-179 -181 0
-179 -182 0
-179 -183 0
-179 -184 0
-180 -181 0
-180 -182 0
-180 -183 0
-180 -184 0
-181 -182 0
-181 -183 0
-181 -184 0
-182 -183 0
-182 -184 0
-183 -184 0
185 186 187 188 189 190 191 192 0
-185 -186 0
-185 -187 0
-185 -188 0
-185 -189 0
-185 -190 0
-185 -191 0
-185 -192 0
-186 -187 0
-186 -188 0
-186 -189 0
-186 -190 0
-186 -191 0
-186 -192 0
-187 -188 0
-187 -189 0
-187 -190 0
-187 -191 0
-187 -192 0
-188 -189 0
-188 -190 0
-188 -191 0
-188 -192 0
-189 -190 0
-189 -191 0
-189 -192 0
-190 -191 0
-190 -192 0
-191 -192 0
